NAME : portgen-34-99
COMMENT : portgen N=34, seed=99
TYPE : TSP
DIMENSION : 34
EDGE_WEIGHT_TYPE : EUC_2D
NODE_COORD_SECTION
1 458631 87908
2 517294 682242
3 796948 186439
4 148093 673329
5 487650 238775
6 758775 836511
7 16358 381546
8 225711 328842
9 662682 83986
10 779565 1195
11 330983 639161
12 478015 771496
13 230602 204152
14 831884 803298
15 664671 308293
16 618093 32951
17 375649 894357
18 317679 362193
19 993801 465245
20 937852 126807
21 491572 515088
22 56692 283679
23 672742 316655
24 228699 492116
25 663844 768629
26 612179 29685
27 216553 305657
28 866626 425679
29 712259 622937
30 364562 434755
31 192638 682848
32 735476 360842
33 747202 243687
34 779819 732679
